96
86
Academic license - for non-commercial use only
Optimize a model with 8296 rows, 64157 columns and 52571736 nonzeros
Variable types: 0 continuous, 64157 integer (64157 binary)
Coefficient statistics:
  Matrix range     [1e+00, 1e+00]
  Objective range  [6e+01, 3e+04]
  Bounds range     [1e+00, 1e+00]
  RHS range        [1e+00, 1e+00]
Found heuristic solution: objective 12072
Presolve removed 181 rows and 0 columns (presolve time = 7s) ...
Presolve removed 181 rows and 31 columns (presolve time = 10s) ...
Presolve removed 181 rows and 31 columns (presolve time = 15s) ...
Presolve removed 181 rows and 31 columns (presolve time = 23s) ...
Presolve removed 181 rows and 31 columns (presolve time = 28s) ...
Presolve removed 181 rows and 31 columns (presolve time = 30s) ...
Presolve removed 181 rows and 31 columns (presolve time = 39s) ...
Presolve removed 181 rows and 31 columns (presolve time = 40s) ...
Presolve removed 181 rows and 31 columns (presolve time = 56s) ...
Presolve removed 181 rows and 31 columns (presolve time = 60s) ...
Presolve removed 181 rows and 31 columns (presolve time = 65s) ...
Presolve removed 181 rows and 31 columns (presolve time = 70s) ...
Presolve removed 181 rows and 31 columns (presolve time = 75s) ...
Presolve removed 181 rows and 31 columns (presolve time = 80s) ...
Presolve removed 181 rows and 31 columns (presolve time = 85s) ...
Presolve removed 181 rows and 31 columns (presolve time = 90s) ...
Presolve removed 181 rows and 31 columns (presolve time = 95s) ...
Presolve removed 181 rows and 31 columns (presolve time = 100s) ...
Presolve removed 181 rows and 31 columns (presolve time = 105s) ...
Presolve removed 181 rows and 31 columns (presolve time = 110s) ...
Presolve removed 181 rows and 31 columns (presolve time = 115s) ...
Presolve removed 181 rows and 31 columns (presolve time = 120s) ...
Presolve removed 181 rows and 31 columns (presolve time = 125s) ...
Presolve removed 181 rows and 31 columns (presolve time = 130s) ...
Presolve removed 181 rows and 31 columns (presolve time = 135s) ...
Presolve removed 181 rows and 31 columns (presolve time = 140s) ...
Presolve removed 181 rows and 31 columns (presolve time = 145s) ...
Presolve removed 181 rows and 31 columns (presolve time = 150s) ...
Presolve removed 181 rows and 31 columns (presolve time = 155s) ...
Presolve removed 181 rows and 31 columns (presolve time = 160s) ...
Presolve removed 181 rows and 31 columns (presolve time = 165s) ...
Presolve removed 181 rows and 31 columns (presolve time = 170s) ...
Presolve removed 181 rows and 31 columns (presolve time = 175s) ...
Presolve removed 181 rows and 31 columns (presolve time = 180s) ...
Presolve removed 181 rows and 31 columns (presolve time = 185s) ...
Presolve removed 181 rows and 31 columns (presolve time = 190s) ...
Presolve removed 181 rows and 31 columns (presolve time = 195s) ...
Presolve removed 181 rows and 31 columns (presolve time = 200s) ...
Presolve removed 181 rows and 31 columns (presolve time = 205s) ...
Presolve removed 181 rows and 31 columns (presolve time = 210s) ...
Presolve removed 181 rows and 31 columns (presolve time = 215s) ...
Presolve removed 181 rows and 31 columns (presolve time = 222s) ...
Presolve removed 181 rows and 31 columns
Presolve time: 221.99s
Presolved: 8115 rows, 64126 columns, 52568426 nonzeros
Variable types: 0 continuous, 64126 integer (64126 binary)

Root simplex log...

Iteration    Objective       Primal Inf.    Dual Inf.      Time
       0    1.4917898e+07   4.730647e+06   0.000000e+00    226s
    2569    4.0434546e+04   2.214457e+04   0.000000e+00    230s
    4609    3.4675605e+04   1.992374e+04   0.000000e+00    235s
    6308    3.1975657e+04   2.807444e+04   0.000000e+00    241s
    7555    3.0712616e+04   3.362601e+04   0.000000e+00    245s
    8801    3.0164284e+04   1.637796e+03   0.000000e+00    250s
    9997    2.9896476e+04   4.144170e+03   0.000000e+00    255s
   11143    2.9713732e+04   1.397706e+03   0.000000e+00    260s
   12233    2.9575538e+04   3.633362e+03   0.000000e+00    265s
   13516    2.9419751e+04   3.860447e+03   0.000000e+00    271s
   14650    2.9316910e+04   1.022052e+03   0.000000e+00    275s
   15900    2.9235271e+04   1.224360e+03   0.000000e+00    280s
   17265    2.9190923e+04   1.555056e+02   0.000000e+00    285s
   18629    2.9169745e+04   1.164564e+02   0.000000e+00    291s
   19844    2.9161483e+04   1.535689e+01   0.000000e+00    295s
   21065    2.9159753e+04   8.841021e+00   0.000000e+00    300s
   21384    2.9159727e+04   0.000000e+00   0.000000e+00    301s

Root relaxation: objective 2.915973e+04, 21384 iterations, 76.56 seconds
Total elapsed time = 316.00s
Total elapsed time = 330.65s

    Nodes    |    Current Node    |     Objective Bounds      |     Work
 Expl Unexpl |  Obj  Depth IntInf | Incumbent    BestBd   Gap | It/Node Time

     0     0 29159.7272    0  158 12072.0000 29159.7272   142%     -  334s
H    0     0                    27833.000000 29159.7272  4.77%     -  348s
H    0     0                    27897.000000 29159.7272  4.53%     -  694s
     0     0 28976.1325    0  266 27897.0000 28976.1325  3.87%     -  998s
     0     0 28976.1325    0  388 27897.0000 28976.1325  3.87%     - 1678s
     0     0 28975.5214    0  921 27897.0000 28975.5214  3.87%     - 1741s
     0     0 28967.8578    0  929 27897.0000 28967.8578  3.84%     - 1756s
     0     0 28963.9340    0  853 27897.0000 28963.9340  3.82%     - 1770s
     0     0 28963.8995    0  838 27897.0000 28963.8995  3.82%     - 1776s
     0     0 28963.8652    0  773 27897.0000 28963.8652  3.82%     - 1787s
     0     0 28963.8652    0  814 27897.0000 28963.8652  3.82%     - 1789s

Cutting planes:
  Implied bound: 3
  Clique: 15
  MIR: 2

Explored 1 nodes (174173 simplex iterations) in 1800.78 seconds
Thread count was 8 (of 8 available processors)

Solution count 3: 27897 27833 12072 

Time limit reached
Best objective 2.789700000000e+04, best bound 2.896300000000e+04, gap 3.8212%
Obj: 27897
